; Extensionality: distinguishing by higher-order context
(set-logic HO_ALL)
(declare-fun f () (-> Int Int))
(declare-fun g () (-> Int Int))
(declare-fun H () (-> (-> Int Int) Int))
(assert (= (H f) 1))
(assert (= (H g) 2))
(assert (forall ((x Int)) (= (f x) (g x))))
(check-sat)
(exit)
